proyfinal/src/viki/013/experimentInOfficeAgust.take6.output/6519afdb-61ac-43be-ba86-610bd335423b.als.out
Reading from standard input... Use '--help' for help.
============================[ Problem Statistics ]=============================
|                                                                             |
|  Number of variables:         87638                                         |
|  Number of clauses:          161767                                         |
|  Parse time:                   0.04 s                                       |
|                                                                             |
============================[ Search Statistics ]==============================
| Conflicts |          ORIGINAL         |          LEARNT          | Progress |
|           |    Vars  Clauses Literals |    Limit  Clauses Lit/Cl |          |
===============================================================================
|       100 |   62233   104631   261497 |    38364      100      9 | 28.989 % |
|       250 |   62233   104631   261497 |    42201      250     35 | 28.989 % |
|       475 |   62233   104631   261497 |    46421      475     48 | 28.989 % |
|       812 |   62233   104631   261497 |    51063      812     54 | 28.989 % |
|      1318 |   62233   104631   261497 |    56169     1318     58 | 28.989 % |
|      2077 |   62208   104529   261257 |    61786     2076     75 | 29.017 % |
|      3216 |   62182   104386   260945 |    67965     3065     83 | 29.047 % |
===============================================================================
restarts              : 23
conflicts             : 4469           (6544 /sec)
decisions             : 12904          (0.00 % random) (18896 /sec)
propagations          : 7188743        (10526864 /sec)
conflict literals     : 392914         (53.19 % deleted)
Memory used           : 23.63 MB
CPU time              : 0.682895 s

UNSATISFIABLE
